language Essence 1.3

letting bot_end be [813, 854, 177, 111, 19, 21, 43, 70, 45, 16, 27; int(1..11)]
letting bot_start be [180, 200, 746, 788, 529, 623, 842, 768, 614, 732, 826; int(1..11)]
letting buffer_col be 2
letting buffer_row be 2
letting corridor_size be 1
letting n_shelves_col be 6
letting n_shelves_row be 18
letting shelf_col_size be 2
letting shelf_row_size be 1
